NAME : single.205717.tour
COMMENT : Length = 205717
COMMENT : Found by LKH [Keld Helsgaun] Mon Mar 16 08:43:47 2026
TYPE : TOUR
DIMENSION : 35
TOUR_SECTION
1
19
32
25
3
16
30
12
9
8
13
14
31
26
33
4
29
17
10
20
18
22
24
6
34
35
27
21
11
28
15
23
7
5
2
-1
EOF
